(set-logic QF_AUFBV)
(declare-fun bvlambda_1_ () (_ BitVec 1))
(declare-fun bvlambda_2_ () (_ BitVec 2))
(declare-fun bvlambda_3_ () (_ BitVec 1))
(declare-fun bvlambda_4_ () (_ BitVec 3))
(declare-fun bvlambda_5_ () (_ BitVec 1))
(declare-fun bvlambda_6_ () (_ BitVec 4))
(declare-fun bvlambda_7_ () (_ BitVec 1))
(declare-fun bvlambda_8_ () (_ BitVec 10))
(declare-fun bvlambda_9_ () (_ BitVec 1))
(declare-fun bvlambda_10_ () (_ BitVec 13))
(declare-fun a37 () (Array (_ BitVec 13) (_ BitVec 1)))
(assert
(let (($e1 (_ bv0 1)))
(let (($e2 (_ bv574 10)))
(let (($e3 (_ bv1538 12)))
(let (($e4 (_ bv0 11)))
(let (($e5 (_ bv1598 11)))
(let (($e6 (_ bv0 7)))
(let (($e7 (_ bv0 2)))
(let (($e8 (_ bv0 5)))
(let (($e9 (_ bv0 3)))
(let (($e10 (_ bv0 9)))
(let (($e11 (_ bv0 8)))
(let (($e12 (_ bv1538 14)))
(let (($e13 (_ bv16382 14)))
(let (($e14 (_ bv7742 13)))
(let (($e15 (_ bv0 10)))
(let (($e16 (_ bv8160 13)))
(let (($e17 (_ bv0 13)))
(let (($e18 (_ bv0 12)))
(let (($e19 (_ bv38 11)))
(let (($e20 (_ bv0 4)))
(let (($e21 (_ bv0 14)))
(let (($e22 (_ bv0 16)))
(let (($e23 (_ bv624 11)))
(let (($e24 (_ bv0 6)))
(let (($e25 (_ bv992 10)))
(let (($e26 (_ bv62 9)))
(let (($e38 (concat $e11 bvlambda_5_)))
(let (($e39 (concat $e38 bvlambda_6_)))
(let (($e40 (concat $e10 bvlambda_3_)))
(let (($e41 (concat $e40 bvlambda_4_)))
(let (($e42 (bvmul $e41 $e39)))
(let (($e43 ((_ extract 0 0) $e42)))
(let (($e44 (concat $e6 bvlambda_1_)))
(let (($e45 (concat $e44 bvlambda_2_)))
(let (($e46 (concat $e45 bvlambda_1_)))
(let (($e47 (concat $e46 bvlambda_2_)))
(let (($e48 (select a37 $e47)))
(let (($e49 (ite (= $e48 $e43) #b1 #b0)))
(let (($e50 ((_ extract 12 1) $e42)))
(let (($e51 (ite (= $e18 $e50) #b1 #b0)))
(let (($e52 (bvand $e51 $e49)))
(let (($e53 (concat $e17 $e52)))
(let (($e54 (concat (bvnot $e17) $e52)))
(let (($e55 (ite (= #b1 $e52) $e54 $e53)))
(let (($e56 (concat bvlambda_9_ bvlambda_10_)))
(let (($e57 (bvadd (bvnot $e13) (bvnot $e56))))
(let (($e58 (ite (= #b1 bvlambda_9_) $e57 $e56)))
(let (($e59 (bvudiv $e12 $e58)))
(let (($e60 (bvadd (bvnot $e13) (bvnot $e59))))
(let (($e61 (ite (= #b1 bvlambda_9_) $e60 $e59)))
(let (($e62 (ite (= $e61 $e55) #b1 #b0)))
(let (($e63 (concat $e8 bvlambda_1_)))
(let (($e64 (concat $e63 bvlambda_2_)))
(let (($e65 (concat (bvnot $e8) bvlambda_1_)))
(let (($e66 (concat $e65 bvlambda_2_)))
(let (($e67 (ite (= #b1 bvlambda_1_) $e66 $e64)))
(let (($e68 (concat $e7 (bvnot $e67))))
(let (($e69 (concat $e68 (bvnot bvlambda_1_))))
(let (($e70 (concat $e69 (bvnot bvlambda_2_))))
(let (($e71 (ite (bvult $e70 $e41) #b1 #b0)))
(let (($e72 (concat (bvnot $e18) (bvnot $e71))))
(let (($e73 (concat $e18 (bvnot $e71))))
(let (($e74 (ite (= #b1 $e71) $e73 $e72)))
(let (($e75 (ite (bvult $e42 $e74) #b1 #b0)))
(let (($e76 (bvand (bvnot $e75) (bvnot $e62))))
(let (($e77 (bvand $e75 $e62)))
(let (($e78 (bvand (bvnot $e77) (bvnot $e76))))
(let (($e79 ((_ extract 3 0) $e61)))
(let (($e80 (concat $e9 bvlambda_5_)))
(let (($e81 (concat $e80 bvlambda_6_)))
(let (($e82 (bvshl $e81  ((_ zero_extend 5) bvlambda_4_))))
(let (($e83 ((_ extract 4 0) $e82)))
(let (($e84 (concat $e4 $e83)))
(let (($e85 (ite (= #b1 bvlambda_3_) $e22 $e84)))
(let (($e86 (bvlshr $e85  ((_ zero_extend 12) $e79))))
(let (($e87 ((_ extract 13 13) $e86)))
(let (($e88 ((_ extract 13 4) $e61)))
(let (($e89 (ite (= $e15 $e88) #b1 #b0)))
(let (($e90 (bvand $e89 $e87)))
(let (($e91 (concat $e6 bvlambda_3_)))
(let (($e92 (concat $e91 bvlambda_4_)))
(let (($e93 (concat (bvnot $e6) bvlambda_3_)))
(let (($e94 (concat $e93 bvlambda_4_)))
(let (($e95 (ite (= #b1 bvlambda_3_) $e94 $e92)))
(let (($e96 ((_ extract 8 1) $e95)))
(let (($e97 (concat $e20 $e96)))
(let (($e98 (concat (bvnot $e20) $e96)))
(let (($e99 ((_ extract 8 8) $e95)))
(let (($e100 (ite (= #b1 $e99) $e98 $e97)))
(let (($e101 (ite (bvult $e3 $e100) #b1 #b0)))
(let (($e102 (concat $e17 $e101)))
(let (($e103 (concat (bvnot $e17) $e101)))
(let (($e104 (ite (= #b1 $e101) $e103 $e102)))
(let (($e105 ((_ extract 13 13) $e104)))
(let (($e106 (ite (= $e105 $e90) #b1 #b0)))
(let (($e107 ((_ extract 12 0) $e86)))
(let (($e108 (ite (= #b1 $e89) $e107 $e17)))
(let (($e109 ((_ extract 12 0) $e104)))
(let (($e110 (ite (bvult $e109 $e108) #b1 #b0)))
(let (($e111 (bvand $e110 $e106)))
(let (($e112 (bvand $e105 (bvnot $e90))))
(let (($e113 (bvand (bvnot $e112) (bvnot $e111))))
(let (($e114 (concat $e17 $e113)))
(let (($e115 (bvadd $e56 $e114)))
(let (($e116 (concat (bvnot $e9) (bvnot bvlambda_7_))))
(let (($e117 (concat $e116 (bvnot bvlambda_8_))))
(let (($e118 (ite (bvult $e117 $e115) #b1 #b0)))
(let (($e119 (bvand $e118 $e78)))
(let (($e120 (concat $e4 bvlambda_1_)))
(let (($e121 (concat $e120 bvlambda_2_)))
(let (($e122 ((_ extract 13 0) $e86)))
(let (($e123 (ite (= #b1 $e89) $e122 $e21)))
(let (($e124 (ite (bvult $e123 $e121) #b1 #b0)))
(let (($e125 (bvand (bvnot $e124) (bvnot $e119))))
(let (($e126 ((_ extract 10 10) $e95)))
(let (($e127 (concat $e9 $e96)))
(let (($e128 (concat (bvnot $e9) $e96)))
(let (($e129 (ite (= #b1 $e99) $e128 $e127)))
(let (($e130 ((_ extract 10 10) $e129)))
(let (($e131 (ite (= $e130 $e126) #b1 #b0)))
(let (($e132 ((_ extract 9 0) $e95)))
(let (($e133 ((_ extract 9 0) $e129)))
(let (($e134 (ite (bvult $e133 $e132) #b1 #b0)))
(let (($e135 (bvand $e134 $e131)))
(let (($e136 (bvand $e130 (bvnot $e126))))
(let (($e137 (bvand (bvnot $e136) (bvnot $e135))))
(let (($e138 (bvand $e137 (bvnot $e125))))
(let (($e139 (concat (bvnot $e6) bvlambda_1_)))
(let (($e140 (concat $e139 bvlambda_2_)))
(let (($e141 (ite (= #b1 bvlambda_1_) $e140 $e45)))
(let (($e142 (concat $e141 bvlambda_1_)))
(let (($e143 (concat $e142 bvlambda_2_)))
(let (($e144 (concat $e15 bvlambda_1_)))
(let (($e145 (concat $e144 bvlambda_2_)))
(let (($e146 (concat $e8 $e96)))
(let (($e147 (store a37 $e146 (bvnot $e1))))
(let (($e148 (store $e147 $e145 (bvnot $e1))))
(let (($e149 (select $e148 $e143)))
(let (($e150 (concat $e4 $e149)))
(let (($e151 (ite (bvult $e3 $e150) #b1 #b0)))
(let (($e152 (concat $e17 $e151)))
(let (($e153 (concat (bvnot $e17) $e151)))
(let (($e154 (ite (= #b1 $e151) $e153 $e152)))
(let (($e155 (ite (bvult $e154 $e115) #b1 #b0)))
(let (($e156 (concat $e11 bvlambda_1_)))
(let (($e157 (concat $e156 bvlambda_2_)))
(let (($e158 (concat (bvnot $e11) bvlambda_1_)))
(let (($e159 (concat $e158 bvlambda_2_)))
(let (($e160 (ite (= #b1 bvlambda_1_) $e159 $e157)))
(let (($e161 (ite (bvult $e160 $e95) #b1 #b0)))
(let (($e162 (bvand $e161 (bvnot $e155))))
(let (($e163 (bvand $e162 $e138)))
(let (($e164 (bvand (bvnot $e162) (bvnot $e138))))
(let (($e165 (bvand (bvnot $e164) (bvnot $e163))))
(let (($e166 (select $e148 (bvnot $e14))))
(let (($e167 (concat $e18 $e166)))
(let (($e168 (concat (bvnot $e18) $e166)))
(let (($e169 (ite (= #b1 $e166) $e168 $e167)))
(let (($e170 (concat $e11 $e83)))
(let (($e171 (ite (= #b1 bvlambda_3_) $e17 $e170)))
(let (($e172 (concat (bvnot $e11) $e83)))
(let (($e173 (ite (= #b1 bvlambda_3_) $e16 $e172)))
(let (($e174 ((_ extract 4 4) $e82)))
(let (($e175 (bvand (bvnot bvlambda_3_) $e174)))
(let (($e176 (ite (= #b1 $e175) $e173 $e171)))
(let (($e177 (store a37 (bvnot $e14) $e1)))
(let (($e178 (select $e177 $e176)))
(let (($e179 (concat $e18 $e178)))
(let (($e180 (concat (bvnot $e18) $e178)))
(let (($e181 (ite (= #b1 $e178) $e180 $e179)))
(let (($e182 (store $e147 $e181 $e178)))
(let (($e183 (select $e182 $e169)))
(let (($e184 (bvand (bvnot $e183) $e149)))
(let (($e185 (concat $e178 $e178)))
(let (($e186 (concat $e185 $e178)))
(let (($e187 (concat $e186 $e178)))
(let (($e188 (concat $e187 $e178)))
(let (($e189 (concat $e188 $e178)))
(let (($e190 (concat $e189 $e178)))
(let (($e191 (concat $e190 $e178)))
(let (($e192 (concat $e191 $e178)))
(let (($e193 (concat $e192 $e178)))
(let (($e194 (concat $e15 $e52)))
(let (($e195 (concat (bvnot $e15) $e52)))
(let (($e196 (ite (= #b1 $e52) $e195 $e194)))
(let (($e197 ((_ extract 9 0) $e196)))
(let (($e198 (ite (bvult (bvnot $e2) $e197) #b1 #b0)))
(let (($e199 ((_ extract 10 10) $e196)))
(let (($e200 (bvand (bvnot $e199) $e198)))
(let (($e201 (concat $e10 (bvnot $e200))))
(let (($e202 (ite (bvult $e201 $e193) #b1 #b0)))
(let (($e203 (ite (= $e202 $e184) #b1 #b0)))
(let (($e204 (bvand $e203 $e165)))
(let (($e205 (ite (bvult $e19 $e157) #b1 #b0)))
(let (($e206 (concat $e10 $e113)))
(let (($e207 (ite (bvult $e193 $e206) #b1 #b0)))
(let (($e208 (bvand $e207 (bvnot $e205))))
(let (($e209 (ite (= (bvnot $e208) $e204) #b1 #b0)))
(let (($e210 ((_ extract 1 0) $e115)))
(let (($e211 (ite (= bvlambda_2_ $e210) #b1 #b0)))
(let (($e212 ((_ extract 2 2) $e115)))
(let (($e213 (ite (= bvlambda_1_ $e212) #b1 #b0)))
(let (($e214 (bvand $e213 $e211)))
(let (($e215 ((_ extract 4 3) $e115)))
(let (($e216 (ite (= bvlambda_2_ $e215) #b1 #b0)))
(let (($e217 ((_ extract 5 5) $e115)))
(let (($e218 (ite (= bvlambda_1_ $e217) #b1 #b0)))
(let (($e219 (bvand $e218 $e216)))
(let (($e220 ((_ extract 13 6) $e115)))
(let (($e221 (ite (= $e11 $e220) #b1 #b0)))
(let (($e222 (bvand $e221 $e219)))
(let (($e223 (bvand $e222 $e214)))
(let (($e224 (concat $e7 $e95)))
(let (($e225 (ite (bvult $e224 $e42) #b1 #b0)))
(let (($e226 (bvand (bvnot $e225) $e223)))
(let (($e227 (concat $e11 bvlambda_3_)))
(let (($e228 (concat $e227 bvlambda_4_)))
(let (($e229 (concat $e1 (bvnot $e67))))
(let (($e230 (concat $e229 (bvnot bvlambda_1_))))
(let (($e231 (concat $e230 (bvnot bvlambda_2_))))
(let (($e232 (ite (bvult $e231 $e228) #b1 #b0)))
(let (($e233 (bvand $e232 (bvnot $e226))))
(let (($e234 (ite (= $e17 $e42) #b1 #b0)))
(let (($e235 (bvand $e52 (bvnot $e234))))
(let (($e236 (bvand (bvnot $e235) (bvnot $e233))))
(let (($e237 (concat $e11 $e166)))
(let (($e238 (concat $e10 $e183)))
(let (($e239 (bvand (bvnot $e2) $e238)))
(let (($e240 (bvand $e2 (bvnot $e238))))
(let (($e241 (bvand (bvnot $e240) (bvnot $e239))))
(let (($e242 ((_ extract 8 0) $e241)))
(let (($e243 (ite (bvult $e242 $e237) #b1 #b0)))
(let (($e244 ((_ extract 9 9) $e241)))
(let (($e245 (bvand (bvnot $e244) (bvnot $e243))))
(let (($e246 (concat $e4 $e178)))
(let (($e247 (ite (bvult $e246 $e3) #b1 #b0)))
(let (($e248 (bvand $e247 $e245)))
(let (($e249 (bvand (bvnot $e247) (bvnot $e245))))
(let (($e250 (bvand (bvnot $e249) (bvnot $e248))))
(let (($e251 (bvand $e166 (bvnot $e200))))
(let (($e252 (concat (bvnot $e6) (bvnot $e251))))
(let (($e253 (concat $e6 (bvnot $e251))))
(let (($e254 (ite (= #b1 $e251) $e253 $e252)))
(let (($e255 (ite (bvult $e96 $e254) #b1 #b0)))
(let (($e256 (bvand (bvnot $e255) (bvnot $e250))))
(let (($e257 (bvand $e166 (bvnot $e183))))
(let (($e258 (ite (bvult $e241 (bvnot $e2)) #b1 #b0)))
(let (($e259 (bvand (bvnot $e244) (bvnot $e258))))
(let (($e260 (bvand (bvnot $e259) (bvnot $e257))))
(let (($e261 (bvand $e255 (bvnot $e260))))
(let (($e262 (bvand (bvnot $e261) (bvnot $e256))))
(let (($e263 (bvand (bvnot $e262) (bvnot $e236))))
(let (($e264 (concat bvlambda_2_ bvlambda_1_)))
(let (($e265 (concat $e264 bvlambda_2_)))
(let (($e266 (concat $e265 bvlambda_1_)))
(let (($e267 (concat $e266 bvlambda_2_)))
(let (($e268 (concat $e267 bvlambda_1_)))
(let (($e269 (concat $e268 bvlambda_2_)))
(let (($e270 (ite (bvult $e19 $e269) #b1 #b0)))
(let (($e271 (concat $e17 $e270)))
(let (($e272 (concat $e17 (bvnot bvlambda_1_))))
(let (($e273 (bvand $e272 $e271)))
(let (($e274 (concat (bvnot $e17) $e270)))
(let (($e275 (concat (bvnot $e17) (bvnot bvlambda_1_))))
(let (($e276 (bvand $e275 $e274)))
(let (($e277 (bvand (bvnot bvlambda_1_) $e270)))
(let (($e278 (ite (= #b1 $e277) $e276 $e273)))
(let (($e279 (ite (bvult $e56 $e278) #b1 #b0)))
(let (($e280 (concat $e24 bvlambda_5_)))
(let (($e281 (concat $e280 bvlambda_6_)))
(let (($e282 (bvurem $e281 (bvnot $e5))))
(let (($e283 ((_ extract 9 0) $e282)))
(let (($e284 (ite (bvult $e283 (bvnot $e2)) #b1 #b0)))
(let (($e285 ((_ extract 10 10) $e282)))
(let (($e286 (bvand (bvnot $e285) (bvnot $e284))))
(let (($e287 (bvand (bvnot $e286) $e279)))
(let (($e288 ((_ extract 3 0) $e82)))
(let (($e289 (ite (= #b1 bvlambda_3_) $e20 $e288)))
(let (($e290 (concat $e1 bvlambda_1_)))
(let (($e291 (concat $e290 bvlambda_2_)))
(let (($e292 (ite (bvult $e291 $e289) #b1 #b0)))
(let (($e293 (bvand (bvnot $e175) $e292)))
(let (($e294 (bvand (bvnot $e293) $e287)))
(let (($e295 (ite (= $e9 bvlambda_4_) #b1 #b0)))
(let (($e296 (bvand (bvnot bvlambda_3_) $e295)))
(let (($e297 (concat $e24 $e96)))
(let (($e298 (concat (bvnot $e24) $e96)))
(let (($e299 (ite (= #b1 $e99) $e298 $e297)))
(let (($e300 ((_ extract 13 13) $e299)))
(let (($e301 ((_ extract 13 13) $e115)))
(let (($e302 (ite (= $e301 $e300) #b1 #b0)))
(let (($e303 ((_ extract 12 0) $e299)))
(let (($e304 ((_ extract 12 0) $e115)))
(let (($e305 (ite (bvult $e304 $e303) #b1 #b0)))
(let (($e306 (bvand $e305 $e302)))
(let (($e307 (bvand $e301 (bvnot $e300))))
(let (($e308 (bvand (bvnot $e307) (bvnot $e306))))
(let (($e309 (bvand $e308 $e296)))
(let (($e310 (bvand $e293 $e309)))
(let (($e311 (bvand (bvnot $e310) (bvnot $e294))))
(let (($e312 (concat $e15 $e270)))
(let (($e313 (concat $e15 (bvnot bvlambda_1_))))
(let (($e314 (bvand $e313 $e312)))
(let (($e315 (ite (bvult $e23 $e314) #b1 #b0)))
(let (($e316 (bvand (bvnot $e315) (bvnot $e311))))
(let (($e317 (bvand $e251 (bvnot $e71))))
(let (($e318 ((_ extract 0 0) $e282)))
(let (($e319 (ite (= (bvnot $e200) $e318) #b1 #b0)))
(let (($e320 ((_ extract 10 1) $e282)))
(let (($e321 (ite (= $e15 $e320) #b1 #b0)))
(let (($e322 (bvand $e321 $e319)))
(let (($e323 (bvand (bvnot $e322) (bvnot $e317))))
(let (($e324 (ite (bvult $e143 $e41) #b1 #b0)))
(let (($e325 (bvand (bvnot $e324) $e323)))
(let (($e326 (concat $e15 $e166)))
(let (($e327 (concat (bvnot $e15) $e166)))
(let (($e328 (ite (= #b1 $e166) $e327 $e326)))
(let (($e329 ((_ extract 10 10) $e328)))
(let (($e330 (ite (= $e285 $e329) #b1 #b0)))
(let (($e331 ((_ extract 9 0) $e328)))
(let (($e332 (ite (bvult $e283 $e331) #b1 #b0)))
(let (($e333 (bvand $e332 $e330)))
(let (($e334 (bvand $e285 (bvnot $e329))))
(let (($e335 (bvand (bvnot $e334) (bvnot $e333))))
(let (($e336 (bvand (bvnot $e335) $e325)))
(let (($e337 (bvand $e336 (bvnot $e316))))
(let (($e338 (bvand $e262 $e337)))
(let (($e339 (bvand (bvnot $e338) (bvnot $e263))))
(let (($e340 (bvand $e339 $e209)))
(let (($e341 (bvand (bvnot $e339) (bvnot $e209))))
(let (($e342 (bvand (bvnot $e341) (bvnot $e340))))
(let (($e343 (concat $e9 bvlambda_7_)))
(let (($e344 (concat $e343 bvlambda_8_)))
(let (($e345 (concat (bvnot $e9) bvlambda_7_)))
(let (($e346 (concat $e345 bvlambda_8_)))
(let (($e347 (ite (= #b1 bvlambda_7_) $e346 $e344)))
(let (($e348 (ite (bvult $e123 $e347) #b1 #b0)))
(let (($e349 (concat (bvnot $e4) (bvnot $e251))))
(let (($e350 (concat $e4 (bvnot $e251))))
(let (($e351 (ite (= #b1 $e251) $e350 $e349)))
(let (($e352 (ite (bvult $e351 $e3) #b1 #b0)))
(let (($e353 (bvand (bvnot $e352) (bvnot $e348))))
(let (($e354 (ite (bvult (bvnot $e5) $e95) #b1 #b0)))
(let (($e355 (bvand $e352 $e354)))
(let (($e356 (bvand (bvnot $e355) (bvnot $e353))))
(let (($e357 (ite (= $e7 (bvnot bvlambda_2_)) #b1 #b0)))
(let (($e358 (bvand bvlambda_1_ $e357)))
(let (($e359 (ite (= $e11 (bvnot $e67)) #b1 #b0)))
(let (($e360 (bvand $e359 $e358)))
(let (($e361 (bvand (bvnot $e360) (bvnot $e251))))
(let (($e362 (bvand (bvnot $e361) $e356)))
(let (($e363 (concat $e157 bvlambda_1_)))
(let (($e364 (concat $e363 bvlambda_2_)))
(let (($e365 (ite (bvult $e364 $e61) #b1 #b0)))
(let (($e366 (ite (= $e17 bvlambda_10_) #b1 #b0)))
(let (($e367 (bvand (bvnot bvlambda_9_) $e366)))
(let (($e368 (ite (= (bvnot $e17) bvlambda_10_) #b1 #b0)))
(let (($e369 (bvand bvlambda_9_ $e368)))
(let (($e370 (concat bvlambda_1_ bvlambda_2_)))
(let (($e371 (concat $e7 $e270)))
(let (($e372 (concat $e7 (bvnot bvlambda_1_))))
(let (($e373 (bvand $e372 $e371)))
(let (($e374 (concat (bvnot $e7) $e270)))
(let (($e375 (concat (bvnot $e7) (bvnot bvlambda_1_))))
(let (($e376 (bvand $e375 $e374)))
(let (($e377 (ite (= #b1 $e277) $e376 $e373)))
(let (($e378 (ite (bvult $e377 $e370) #b1 #b0)))
(let (($e379 (ite (= bvlambda_8_ $e141) #b1 #b0)))
(let (($e380 ((_ extract 9 9) $e141)))
(let (($e381 (ite (= bvlambda_7_ $e380) #b1 #b0)))
(let (($e382 (bvand $e381 $e379)))
(let (($e383 (bvand (bvnot $e382) (bvnot $e378))))
(let (($e384 (concat $e67 bvlambda_1_)))
(let (($e385 (concat $e384 bvlambda_2_)))
(let (($e386 (ite (bvult (bvnot $e385) $e95) #b1 #b0)))
(let (($e387 (ite (= $e386 $e383) #b1 #b0)))
(let (($e388 (concat $e11 $e270)))
(let (($e389 (concat $e11 (bvnot bvlambda_1_))))
(let (($e390 (bvand $e389 $e388)))
(let (($e391 (ite (bvult $e242 $e390) #b1 #b0)))
(let (($e392 (bvand (bvnot $e244) (bvnot $e391))))
(let (($e393 (concat $e8 $e83)))
(let (($e394 (ite (= #b1 bvlambda_3_) $e15 $e393)))
(let (($e395 (concat (bvnot $e8) $e83)))
(let (($e396 (ite (= #b1 bvlambda_3_) $e25 $e395)))
(let (($e397 (ite (= #b1 $e175) $e396 $e394)))
(let (($e398 ((_ extract 8 0) $e397)))
(let (($e399 (ite (bvult (bvnot $e26) $e398) #b1 #b0)))
(let (($e400 ((_ extract 9 9) $e397)))
(let (($e401 (bvand (bvnot $e400) $e399)))
(let (($e402 (ite (= (bvnot $e401) $e392) #b1 #b0)))
(let (($e403 ((_ extract 10 0) $e100)))
(let (($e404 (concat bvlambda_7_ bvlambda_8_)))
(let (($e405 (ite (bvult (bvnot $e404) $e403) #b1 #b0)))
(let (($e406 ((_ extract 11 11) $e100)))
(let (($e407 (bvand $e406 (bvnot $e405))))
(let (($e408 (ite (= bvlambda_1_ $e407) #b1 #b0)))
(let (($e409 (bvand (bvnot $e408) $e402)))
(let (($e410 (ite (= $e15 bvlambda_8_) #b1 #b0)))
(let (($e411 (bvand (bvnot bvlambda_7_) $e410)))
(let (($e412 (ite (= (bvnot $e15) bvlambda_8_) #b1 #b0)))
(let (($e413 (bvand bvlambda_7_ $e412)))
(let (($e414 (concat $e24 $e83)))
(let (($e415 (ite (= #b1 bvlambda_3_) $e4 $e414)))
(let (($e416 (ite (bvult $e282 $e415) #b1 #b0)))
(let (($e417 (concat $e1 $e178)))
(let (($e418 (concat $e417 $e178)))
(let (($e419 (concat $e418 $e178)))
(let (($e420 (concat $e419 $e178)))
(let (($e421 (concat $e420 $e178)))
(let (($e422 (concat $e421 $e178)))
(let (($e423 (concat $e422 $e178)))
(let (($e424 (concat $e423 $e178)))
(let (($e425 (concat $e424 $e178)))
(let (($e426 (concat $e425 $e178)))
(let (($e427 (ite (bvult $e426 (bvnot $e5)) #b1 #b0)))
(let (($e428 (bvand (bvnot $e427) $e416)))
(let (($e429 (concat (bvnot $e24) bvlambda_5_)))
(let (($e430 (concat $e429 bvlambda_6_)))
(let (($e431 (ite (= #b1 bvlambda_5_) $e430 $e281)))
(let (($e432 ((_ extract 10 10) $e431)))
(let (($e433 (ite (= $e285 $e432) #b1 #b0)))
(let (($e434 ((_ extract 9 0) $e431)))
(let (($e435 (ite (bvult $e283 $e434) #b1 #b0)))
(let (($e436 (bvand $e435 $e433)))
(let (($e437 (bvand $e285 (bvnot $e432))))
(let (($e438 (bvand (bvnot $e437) (bvnot $e436))))
(let (($e439 (ite (bvult $e146 $e41) #b1 #b0)))
(let (($e440 (bvand $e439 (bvnot $e438))))
(let (($e441 (bvand $e427 $e440)))
(let (($e442 (bvand (bvnot $e441) (bvnot $e428))))
(let (($e443 (bvand (bvnot $e442) (bvnot $e413))))
(let (($e444 (bvand $e443 (bvnot $e411))))
(let (($e445 (bvand $e444 (bvnot $e409))))
(let (($e446 (bvand $e445 (bvnot $e387))))
(let (($e447 (bvand $e446 (bvnot $e369))))
(let (($e448 (bvand $e447 (bvnot $e367))))
(let (($e449 (bvand $e448 (bvnot $e365))))
(let (($e450 (bvand $e449 (bvnot $e362))))
(let (($e451 (bvand $e450 (bvnot $e342))))
 (not (= $e451 #b0)))))))))))))))))))))))))))))))))))))))))))))))))))))))))))))))))))))))))))))))))))))))))))))))))))))))))))))))))))))))))))))))))))))))))))))))))))))))))))))))))))))))))))))))))))))))))))))))))))))))))))))))))))))))))))))))))))))))))))))))))))))))))))))))))))))))))))))))))))))))))))))))))))))))))))))))))))))))))))))))))))))))))))))))))))))))))))))))))))))))))))))))))))))))))))))))))))))))))))))))))))))))))))))))))))))))))))))))))))))))))))
(check-sat)
(exit)
